80 8
62 77
19 18
2 6
27 57
19 27
1 78
95 36
38 43
65 35
75 41
30 10
66 27
20 37
36 43
21 70
33 17
96 76
79 82
48 7
70 48
16 90
71 20
3 37
86 28
29 85
92 76
5 33
94 61
77 59
51 25
46 98
19 52
46 60
43 90
45 92
86 86
89 52
52 100
78 75
88 59
90 48
3 65
97 85
79 98
53 41
91 14
78 52
1 40
9 70
45 35
60 7
79 44
87 24
5 50
86 31
21 27
65 84
18 28
52 44
27 86
62 20
45 62
4 3
50 81
98 27
12 41
44 51
60 76
52 12
81 39
29 62
93 40
68 76
66 62
58 1
23 41
93 32
78 18
76 92
11 71
415 694
315 489
322 527
166 474
273 661
323 516
212 562
218 484
